(set-logic QF_LRA)
(declare-fun fluent_started_i0_t0@0 () Bool)
(declare-fun fluent_started_i0_t1@0 () Bool)
(declare-fun fluent_started_i0_t2@0 () Bool)
(declare-fun fluent_started_i0_t3@0 () Bool)
(declare-fun fluent_started_i0_t4@0 () Bool)
(declare-fun fluent_ready_i0_t0@0 () Bool)
(declare-fun fluent_ready_i0_t1@0 () Bool)
(declare-fun fluent_ready_i0_t2@0 () Bool)
(declare-fun fluent_ready_i0_t3@0 () Bool)
(declare-fun fluent_ready_i0_t4@0 () Bool)
(declare-fun fluent_busy_@0 () Bool)
(declare-fun fluent_treated_i0_t0@0 () Bool)
(declare-fun fluent_treated_i0_t1@0 () Bool)
(declare-fun fluent_treated_i0_t2@0 () Bool)
(declare-fun fluent_treated_i0_t3@0 () Bool)
(declare-fun fluent_treated_i0_t4@0 () Bool)
(declare-fun fluent_counter_t0@0 () Real)
(declare-fun fluent_counter_t1@0 () Real)
(declare-fun fluent_counter_t2@0 () Real)
(declare-fun fluent_counter_t0@1 () Real)
(declare-fun fluent_counter_t3@0 () Real)
(declare-fun fluent_counter_t1@1 () Real)
(declare-fun fluent_counter_t4@0 () Real)
(declare-fun fluent_counter_t2@1 () Real)
(declare-fun fluent_counter_t3@1 () Real)
(declare-fun dur_make_treatment@1 () Real)
(declare-fun fluent_counter_t4@1 () Real)
(declare-fun t@1 () Real)
(declare-fun fluent_busy_@1 () Bool)
(declare-fun fluent_started_i0_t0@1 () Bool)
(declare-fun parameter_make_treatment_t@1 () Real)
(declare-fun fluent_started_i0_t1@1 () Bool)
(declare-fun fluent_started_i0_t2@1 () Bool)
(declare-fun fluent_started_i0_t3@1 () Bool)
(declare-fun fluent_started_i0_t4@1 () Bool)
(declare-fun parameter_make_treatment_i@1 () Real)
(declare-fun fluent_treated_i0_t0@1 () Bool)
(declare-fun fluent_treated_i0_t1@1 () Bool)
(declare-fun fluent_treated_i0_t2@1 () Bool)
(declare-fun fluent_treated_i0_t3@1 () Bool)
(declare-fun fluent_treated_i0_t4@1 () Bool)
(declare-fun parameter_make_treatment_next@1 () Real)
(declare-fun fluent_ready_i0_t0@1 () Bool)
(declare-fun fluent_ready_i0_t1@1 () Bool)
(declare-fun fluent_ready_i0_t2@1 () Bool)
(declare-fun fluent_ready_i0_t3@1 () Bool)
(declare-fun fluent_ready_i0_t4@1 () Bool)
(declare-fun act_make_treatment@1 () Bool)
(assert (let ((.def_0 (<= fluent_counter_t2@1 31.0))) (let ((.def_1 (<= 0.0 fluent_counter_t2@1))) (let ((.def_2 (<= fluent_counter_t1@1 31.0))) (let ((.def_3 (<= 0.0 fluent_counter_t1@1))) (let ((.def_4 (= parameter_make_treatment_i@1 0.0))) (let ((.def_5 (<= fluent_counter_t0@1 31.0))) (let ((.def_6 (<= 0.0 fluent_counter_t0@1))) (let ((.def_7 (= parameter_make_treatment_t@1 5.0))) (let ((.def_8 (= parameter_make_treatment_t@1 4.0))) (let ((.def_9 (= parameter_make_treatment_t@1 3.0))) (let ((.def_10 (= parameter_make_treatment_t@1 2.0))) (let ((.def_11 (= parameter_make_treatment_t@1 1.0))) (let ((.def_12 (or .def_11 .def_10 .def_9 .def_8 .def_7))) (let ((.def_13 (= parameter_make_treatment_next@1 5.0))) (let ((.def_14 (= parameter_make_treatment_next@1 4.0))) (let ((.def_15 (= parameter_make_treatment_next@1 3.0))) (let ((.def_16 (= parameter_make_treatment_next@1 2.0))) (let ((.def_17 (= parameter_make_treatment_next@1 1.0))) (let ((.def_18 (or .def_17 .def_16 .def_15 .def_14 .def_13))) (let ((.def_19 (<= fluent_counter_t4@1 31.0))) (let ((.def_20 (<= 0.0 fluent_counter_t4@1))) (let ((.def_21 (<= fluent_counter_t3@1 31.0))) (let ((.def_22 (<= 0.0 fluent_counter_t3@1))) (let ((.def_23 (and act_make_treatment@1 true .def_7))) (let ((.def_24 (= fluent_counter_t4@0 fluent_counter_t4@1))) (let ((.def_25 (not .def_24))) (let ((.def_26 (=> .def_25 .def_23))) (let ((.def_27 (and act_make_treatment@1 true .def_8))) (let ((.def_28 (= fluent_counter_t3@0 fluent_counter_t3@1))) (let ((.def_29 (not .def_28))) (let ((.def_30 (=> .def_29 .def_27))) (let ((.def_31 (and act_make_treatment@1 true .def_9))) (let ((.def_32 (= fluent_counter_t2@0 fluent_counter_t2@1))) (let ((.def_33 (not .def_32))) (let ((.def_34 (=> .def_33 .def_31))) (let ((.def_35 (and act_make_treatment@1 true .def_10))) (let ((.def_36 (= fluent_counter_t1@0 fluent_counter_t1@1))) (let ((.def_37 (not .def_36))) (let ((.def_38 (=> .def_37 .def_35))) (let ((.def_39 (and act_make_treatment@1 true .def_11))) (let ((.def_40 (= fluent_counter_t0@0 fluent_counter_t0@1))) (let ((.def_41 (not .def_40))) (let ((.def_42 (=> .def_41 .def_39))) (let ((.def_43 (+ t@1 10.0))) (let ((.def_44 (= t@1 .def_43))) (let ((.def_45 (and act_make_treatment@1 true .def_44 .def_4 .def_13))) (let ((.def_46 (= fluent_ready_i0_t4@0 fluent_ready_i0_t4@1))) (let ((.def_47 (not .def_46))) (let ((.def_48 (=> .def_47 .def_45))) (let ((.def_49 (and act_make_treatment@1 true .def_44 .def_4 .def_14))) (let ((.def_50 (= fluent_ready_i0_t3@0 fluent_ready_i0_t3@1))) (let ((.def_51 (not .def_50))) (let ((.def_52 (=> .def_51 .def_49))) (let ((.def_53 (and act_make_treatment@1 true .def_44 .def_4 .def_15))) (let ((.def_54 (= fluent_ready_i0_t2@0 fluent_ready_i0_t2@1))) (let ((.def_55 (not .def_54))) (let ((.def_56 (=> .def_55 .def_53))) (let ((.def_57 (and act_make_treatment@1 true .def_44 .def_4 .def_16))) (let ((.def_58 (= fluent_ready_i0_t1@0 fluent_ready_i0_t1@1))) (let ((.def_59 (not .def_58))) (let ((.def_60 (=> .def_59 .def_57))) (let ((.def_61 (and act_make_treatment@1 true .def_44 .def_4 .def_17))) (let ((.def_62 (= fluent_ready_i0_t0@0 fluent_ready_i0_t0@1))) (let ((.def_63 (not .def_62))) (let ((.def_64 (=> .def_63 .def_61))) (let ((.def_65 (and act_make_treatment@1 true .def_4 .def_7))) (let ((.def_66 (= fluent_started_i0_t4@0 fluent_started_i0_t4@1))) (let ((.def_67 (not .def_66))) (let ((.def_68 (=> .def_67 .def_65))) (let ((.def_69 (and act_make_treatment@1 true .def_4 .def_8))) (let ((.def_70 (= fluent_started_i0_t3@0 fluent_started_i0_t3@1))) (let ((.def_71 (not .def_70))) (let ((.def_72 (=> .def_71 .def_69))) (let ((.def_73 (and act_make_treatment@1 true .def_4 .def_9))) (let ((.def_74 (= fluent_started_i0_t2@0 fluent_started_i0_t2@1))) (let ((.def_75 (not .def_74))) (let ((.def_76 (=> .def_75 .def_73))) (let ((.def_77 (and act_make_treatment@1 true .def_4 .def_10))) (let ((.def_78 (= fluent_started_i0_t1@0 fluent_started_i0_t1@1))) (let ((.def_79 (not .def_78))) (let ((.def_80 (=> .def_79 .def_77))) (let ((.def_81 (and act_make_treatment@1 true .def_4 .def_11))) (let ((.def_82 (= fluent_started_i0_t0@0 fluent_started_i0_t0@1))) (let ((.def_83 (not .def_82))) (let ((.def_84 (=> .def_83 .def_81))) (let ((.def_85 (+ t@1 4.0))) (let ((.def_86 (= t@1 .def_85))) (let ((.def_87 (and act_make_treatment@1 true .def_86 .def_4 .def_7))) (let ((.def_88 (= fluent_treated_i0_t4@0 fluent_treated_i0_t4@1))) (let ((.def_89 (not .def_88))) (let ((.def_90 (=> .def_89 .def_87))) (let ((.def_91 (and act_make_treatment@1 true .def_86 .def_4 .def_8))) (let ((.def_92 (= fluent_treated_i0_t3@0 fluent_treated_i0_t3@1))) (let ((.def_93 (not .def_92))) (let ((.def_94 (=> .def_93 .def_91))) (let ((.def_95 (and act_make_treatment@1 true .def_86 .def_4 .def_9))) (let ((.def_96 (= fluent_treated_i0_t2@0 fluent_treated_i0_t2@1))) (let ((.def_97 (not .def_96))) (let ((.def_98 (=> .def_97 .def_95))) (let ((.def_99 (and act_make_treatment@1 true .def_86 .def_4 .def_10))) (let ((.def_100 (= fluent_treated_i0_t1@0 fluent_treated_i0_t1@1))) (let ((.def_101 (not .def_100))) (let ((.def_102 (=> .def_101 .def_99))) (let ((.def_103 (and act_make_treatment@1 true .def_86 .def_4 .def_11))) (let ((.def_104 (= fluent_treated_i0_t0@0 fluent_treated_i0_t0@1))) (let ((.def_105 (not .def_104))) (let ((.def_106 (=> .def_105 .def_103))) (let ((.def_107 (and act_make_treatment@1 true .def_86))) (let ((.def_108 (and act_make_treatment@1 true))) (let ((.def_109 (and .def_108 .def_107))) (let ((.def_110 (not .def_109))) (let ((.def_111 (or .def_108 .def_107))) (let ((.def_112 (= fluent_busy_@0 fluent_busy_@1))) (let ((.def_113 (not .def_112))) (let ((.def_114 (=> .def_113 .def_111))) (let ((.def_115 (and .def_114 .def_110 .def_106 .def_102 .def_98 .def_94 .def_90 .def_84 .def_80 .def_76 .def_72 .def_68 .def_64 .def_60 .def_56 .def_52 .def_48 .def_42 .def_38 .def_34 .def_30 .def_26))) (let ((.def_116 (<= 0.0 t@1))) (let ((.def_117 (and .def_4 .def_16))) (let ((.def_118 (ite .def_117 fluent_ready_i0_t1@1 fluent_ready_i0_t0@1))) (let ((.def_119 (and .def_4 .def_15))) (let ((.def_120 (ite .def_119 fluent_ready_i0_t2@1 .def_118))) (let ((.def_121 (and .def_4 .def_14))) (let ((.def_122 (ite .def_121 fluent_ready_i0_t3@1 .def_120))) (let ((.def_123 (and .def_4 .def_13))) (let ((.def_124 (ite .def_123 fluent_ready_i0_t4@1 .def_122))) (let ((.def_125 (= .def_124 true))) (let ((.def_126 (=> true .def_125))) (let ((.def_127 (and .def_44 .def_126))) (let ((.def_128 (= fluent_busy_@1 false))) (let ((.def_129 (=> true .def_128))) (let ((.def_130 (and .def_4 .def_10))) (let ((.def_131 (ite .def_130 fluent_treated_i0_t1@1 fluent_treated_i0_t0@1))) (let ((.def_132 (and .def_4 .def_9))) (let ((.def_133 (ite .def_132 fluent_treated_i0_t2@1 .def_131))) (let ((.def_134 (and .def_4 .def_8))) (let ((.def_135 (ite .def_134 fluent_treated_i0_t3@1 .def_133))) (let ((.def_136 (and .def_4 .def_7))) (let ((.def_137 (ite .def_136 fluent_treated_i0_t4@1 .def_135))) (let ((.def_138 (= .def_137 true))) (let ((.def_139 (=> true .def_138))) (let ((.def_140 (and .def_86 .def_139 .def_129))) (let ((.def_141 (ite .def_130 fluent_started_i0_t1@1 fluent_started_i0_t0@1))) (let ((.def_142 (ite .def_132 fluent_started_i0_t2@1 .def_141))) (let ((.def_143 (ite .def_134 fluent_started_i0_t3@1 .def_142))) (let ((.def_144 (ite .def_136 fluent_started_i0_t4@1 .def_143))) (let ((.def_145 (= .def_144 true))) (let ((.def_146 (=> true .def_145))) (let ((.def_147 (= fluent_busy_@1 true))) (let ((.def_148 (=> true .def_147))) (let ((.def_149 (ite .def_10 fluent_counter_t1@0 fluent_counter_t0@0))) (let ((.def_150 (ite .def_9 fluent_counter_t2@0 .def_149))) (let ((.def_151 (ite .def_8 fluent_counter_t3@0 .def_150))) (let ((.def_152 (ite .def_7 fluent_counter_t4@0 .def_151))) (let ((.def_153 (+ .def_152 1.0))) (let ((.def_154 (ite .def_10 fluent_counter_t1@1 fluent_counter_t0@1))) (let ((.def_155 (ite .def_9 fluent_counter_t2@1 .def_154))) (let ((.def_156 (ite .def_8 fluent_counter_t3@1 .def_155))) (let ((.def_157 (ite .def_7 fluent_counter_t4@1 .def_156))) (let ((.def_158 (= .def_157 .def_153))) (let ((.def_159 (=> true .def_158))) (let ((.def_160 (= t@1 t@1))) (let ((.def_161 (and .def_160 .def_159 .def_148 .def_146))) (let ((.def_162 (ite .def_117 fluent_started_i0_t1@0 fluent_started_i0_t0@0))) (let ((.def_163 (ite .def_119 fluent_started_i0_t2@0 .def_162))) (let ((.def_164 (ite .def_121 fluent_started_i0_t3@0 .def_163))) (let ((.def_165 (ite .def_123 fluent_started_i0_t4@0 .def_164))) (let ((.def_166 (+ t@1 dur_make_treatment@1))) (let ((.def_167 (<= .def_166 t@1))) (let ((.def_168 (< (- 1.0) .def_166))) (let ((.def_169 (and .def_168 .def_167))) (let ((.def_170 (=> .def_169 .def_165))) (let ((.def_171 (ite .def_130 fluent_ready_i0_t1@0 fluent_ready_i0_t0@0))) (let ((.def_172 (ite .def_132 fluent_ready_i0_t2@0 .def_171))) (let ((.def_173 (ite .def_134 fluent_ready_i0_t3@0 .def_172))) (let ((.def_174 (ite .def_136 fluent_ready_i0_t4@0 .def_173))) (let ((.def_175 (ite .def_130 fluent_started_i0_t1@0 fluent_started_i0_t0@0))) (let ((.def_176 (ite .def_132 fluent_started_i0_t2@0 .def_175))) (let ((.def_177 (ite .def_134 fluent_started_i0_t3@0 .def_176))) (let ((.def_178 (ite .def_136 fluent_started_i0_t4@0 .def_177))) (let ((.def_179 (not .def_178))) (let ((.def_180 (ite .def_130 fluent_treated_i0_t1@0 fluent_treated_i0_t0@0))) (let ((.def_181 (ite .def_132 fluent_treated_i0_t2@0 .def_180))) (let ((.def_182 (ite .def_134 fluent_treated_i0_t3@0 .def_181))) (let ((.def_183 (ite .def_136 fluent_treated_i0_t4@0 .def_182))) (let ((.def_184 (not .def_183))) (let ((.def_185 (not fluent_busy_@0))) (let ((.def_186 (and .def_10 .def_17))) (let ((.def_187 (ite .def_186 false false))) (let ((.def_188 (and .def_9 .def_17))) (let ((.def_189 (ite .def_188 false .def_187))) (let ((.def_190 (and .def_8 .def_17))) (let ((.def_191 (ite .def_190 false .def_189))) (let ((.def_192 (and .def_7 .def_17))) (let ((.def_193 (ite .def_192 false .def_191))) (let ((.def_194 (and .def_11 .def_16))) (let ((.def_195 (ite .def_194 true .def_193))) (let ((.def_196 (and .def_10 .def_16))) (let ((.def_197 (ite .def_196 false .def_195))) (let ((.def_198 (and .def_9 .def_16))) (let ((.def_199 (ite .def_198 false .def_197))) (let ((.def_200 (and .def_8 .def_16))) (let ((.def_201 (ite .def_200 false .def_199))) (let ((.def_202 (and .def_7 .def_16))) (let ((.def_203 (ite .def_202 false .def_201))) (let ((.def_204 (and .def_11 .def_15))) (let ((.def_205 (ite .def_204 false .def_203))) (let ((.def_206 (and .def_10 .def_15))) (let ((.def_207 (ite .def_206 true .def_205))) (let ((.def_208 (and .def_9 .def_15))) (let ((.def_209 (ite .def_208 false .def_207))) (let ((.def_210 (and .def_8 .def_15))) (let ((.def_211 (ite .def_210 false .def_209))) (let ((.def_212 (and .def_7 .def_15))) (let ((.def_213 (ite .def_212 false .def_211))) (let ((.def_214 (and .def_11 .def_14))) (let ((.def_215 (ite .def_214 false .def_213))) (let ((.def_216 (and .def_10 .def_14))) (let ((.def_217 (ite .def_216 false .def_215))) (let ((.def_218 (and .def_9 .def_14))) (let ((.def_219 (ite .def_218 true .def_217))) (let ((.def_220 (and .def_8 .def_14))) (let ((.def_221 (ite .def_220 false .def_219))) (let ((.def_222 (and .def_7 .def_14))) (let ((.def_223 (ite .def_222 false .def_221))) (let ((.def_224 (and .def_11 .def_13))) (let ((.def_225 (ite .def_224 false .def_223))) (let ((.def_226 (and .def_10 .def_13))) (let ((.def_227 (ite .def_226 false .def_225))) (let ((.def_228 (and .def_9 .def_13))) (let ((.def_229 (ite .def_228 false .def_227))) (let ((.def_230 (and .def_8 .def_13))) (let ((.def_231 (ite .def_230 true .def_229))) (let ((.def_232 (and .def_7 .def_13))) (let ((.def_233 (ite .def_232 false .def_231))) (let ((.def_234 (= 0.0 .def_152))) (let ((.def_235 (and .def_234 .def_233 .def_185 .def_184 .def_179 .def_174))) (let ((.def_236 (<= t@1 t@1))) (let ((.def_237 (< (- 1.0) t@1))) (let ((.def_238 (and .def_237 .def_236))) (let ((.def_239 (=> .def_238 .def_235))) (let ((.def_240 (<= dur_make_treatment@1 15.0))) (let ((.def_241 (<= 15.0 dur_make_treatment@1))) (let ((.def_242 (and .def_241 .def_240))) (let ((.def_243 (and .def_242 .def_167 .def_239 .def_170 .def_161 .def_140 .def_127))) (let ((.def_244 (=> act_make_treatment@1 .def_243))) (let ((.def_245 (<= fluent_counter_t4@0 31.0))) (let ((.def_246 (<= 0.0 fluent_counter_t4@0))) (let ((.def_247 (<= fluent_counter_t3@0 31.0))) (let ((.def_248 (<= 0.0 fluent_counter_t3@0))) (let ((.def_249 (<= fluent_counter_t2@0 31.0))) (let ((.def_250 (<= 0.0 fluent_counter_t2@0))) (let ((.def_251 (<= fluent_counter_t1@0 31.0))) (let ((.def_252 (<= 0.0 fluent_counter_t1@0))) (let ((.def_253 (<= fluent_counter_t0@0 31.0))) (let ((.def_254 (<= 0.0 fluent_counter_t0@0))) (let ((.def_255 (= fluent_counter_t4@0 0.0))) (let ((.def_256 (= fluent_counter_t3@0 0.0))) (let ((.def_257 (= fluent_counter_t2@0 0.0))) (let ((.def_258 (= fluent_counter_t1@0 0.0))) (let ((.def_259 (= fluent_counter_t0@0 0.0))) (let ((.def_260 (= false false))) (let ((.def_261 (= fluent_ready_i0_t4@0 false))) (let ((.def_262 (= fluent_ready_i0_t3@0 false))) (let ((.def_263 (= fluent_ready_i0_t2@0 false))) (let ((.def_264 (= fluent_ready_i0_t1@0 false))) (let ((.def_265 (= fluent_started_i0_t3@0 false))) (let ((.def_266 (= fluent_started_i0_t2@0 false))) (let ((.def_267 (= fluent_started_i0_t1@0 false))) (let ((.def_268 (= fluent_started_i0_t0@0 false))) (let ((.def_269 (= fluent_treated_i0_t4@0 false))) (let ((.def_270 (= fluent_treated_i0_t3@0 false))) (let ((.def_271 (= fluent_treated_i0_t2@0 false))) (let ((.def_272 (= fluent_treated_i0_t1@0 false))) (let ((.def_273 (= fluent_treated_i0_t0@0 false))) (let ((.def_274 (= fluent_busy_@0 false))) (let ((.def_275 (= fluent_ready_i0_t0@0 true))) (let ((.def_276 (= fluent_started_i0_t4@0 true))) (let ((.def_277 (= true true))) (let ((.def_278 (= 0.0 0.0))) (let ((.def_279 (and .def_278 .def_277 .def_277 .def_277 .def_277 .def_276 .def_275 .def_274 .def_273 .def_272 .def_271 .def_270 .def_269 .def_268 .def_267 .def_266 .def_265 .def_264 .def_263 .def_262 .def_261 .def_260 .def_260 .def_260 .def_260 .def_260 .def_260 .def_260 .def_260 .def_260 .def_260 .def_260 .def_260 .def_260 .def_260 .def_260 .def_260 .def_260 .def_260 .def_260 .def_260 .def_260 .def_259 .def_258 .def_257 .def_256 .def_255 .def_254 .def_253 .def_252 .def_251 .def_250 .def_249 .def_248 .def_247 .def_246 .def_245))) (let ((.def_280 (and .def_279 .def_244 .def_116 true true .def_115 .def_22 .def_21 .def_20 .def_19 .def_18 .def_12 .def_6 .def_5 .def_4 .def_3 .def_2 .def_1 .def_0 true))) .def_280))))))))))))))))))))))))))))))))))))))))))))))))))))))))))))))))))))))))))))))))))))))))))))))))))))))))))))))))))))))))))))))))))))))))))))))))))))))))))))))))))))))))))))))))))))))))))))))))))))))))))))))))))))))))))))))))))))))))))))))))))))))))))))))))))))))))))))))))))))))))))
(check-sat)
